
  22   10
  10   10   10   10   10   10   10   10   10   10

   0   0   0   0   0   0   0   0   0   0   0   1 2 
   2   0   0   0   0   0   0   0   0   0  10   2 20 3 
   9   0   0   0   0  10   0   0   0   0   0   1 4 
  10   0   0   0   0   0   0  10   0   0   0   1 5 
  10   0   0   0   0   0  10   0   0   0   0   1 6 
   5   0   0   0   0   0   0   0  10   0   0   1 7 
   1   0   0   0   0   0  10   0   0   0   0   1 8 
   6   0   0   0  10   0   0   0   0   0   0   1 9 
   9   0   0   0   0   0   0   0   0  10   0   1 10 
   2   0   0   0   0   0   0   0   0   0  10   2 19 11 
   8   0   0   0   0   0   0  10   0   0   0   1 12 
   5   0   0   0   0   0   0   0  10   0   0   1 13 
  10  10   0   0   0   0   0   0   0   0   0   1 14 
   8  10   0   0   0   0   0   0   0   0   0   1 15 
   7   0   0   0   0   0   0  10   0   0   0   1 16 
  10   0   0   0   0   0  10   0   0   0   0   1 17 
   3   0   0   0   0   0   0  10   0   0   0   1 18 
   2   0   0   0   0   0  10   0   0   0   0   1 21 
   1  10   0   0   0   0   0   0   0   0   0   1 21 
   2   0   0   0   0   0   0   0   0   0  10   1 21 
   4   0   0   0  10   0   0   0   0   0   0   1 22
   0   0   0   0   0   0   0   0   0   0   0   0 
